(declare-const delta_param2 Int)
(declare-const delta_param2@pos Int)
(declare-const delta_param1@width Int)
(declare-const delta_param0 Int)
(declare-const delta_param0@width Int)
(declare-const delta_k Int)
(declare-const delta_j Int)
(declare-const delta_param1@pos Int)
(declare-const delta_param2@width Int)
(declare-const delta_param0@pos Int)
(declare-const delta_param1 Int)
(assert (exists
         ((uninterp?1 Int) (|j'?2| Int) (|param0'?3| Int) (|param1'?4| Int)
            (|param2'?5| Int) (|param0@pos'?6| Int) (|param1@pos'?7| Int)
            (|param2@pos'?8| Int) (|param0@width'?9| Int)
            (|param1@width'?10| Int) (|param2@width'?11| Int)
            (|S1,0?12| Real) (|k'?13| Int) (KSUM1?14 Int) (|K1,0?15| Int)
            (K?16 Int) (|param2@width'?17| Int) (|param1@width'?18| Int)
            (|param0@width'?19| Int) (|param2@pos'?20| Int)
            (|param1@pos'?21| Int) (|param0@pos'?22| Int) (|param2'?23| Int)
            (|param1'?24| Int) (|param0'?25| Int) (|k'?26| Int)
            (stderr?27 Int) (stderr@pos?28 Int) (stderr@width?29 Int)
            (cxm?30 Int) (k?31 Int) (cym?32 Int) (j?33 Int) (i?34 Int)
            (param2@width?35 Int) (param2@pos?36 Int) (param2?37 Int)
            (param1?38 Int) (param1@pos?39 Int) (param1@width?40 Int)
            (param0?41 Int) (param0@pos?42 Int) (param0@width?43 Int))
         (and (<= (- j?33) 0) (<= (- i?34) 0) (<= (+ (- cym?32) j?33) 0)
                (<= (- K?16) 0) (<= (- |K1,0?15|) 0)
                (= (+ |K1,0?15| (- K?16)) 0) (<= (+ KSUM1?14 (- K?16)) 0)
                (= (+ (- |S1,0?12|) |k'?13| (- |K1,0?15|)) 0)
                (= (+ (- KSUM1?14) |K1,0?15|) 0) (= |S1,0?12| 0)
                (or (and (= K?16 0)
                           (= (+ (- |param2@width'?11|) param2@width?35) 0)
                           (= (+ (- |param1@width'?10|) param1@width?40) 0)
                           (= (+ (- |param0@width'?9|) param0@width?43) 0)
                           (= (+ (- |param2@pos'?8|) param2@pos?36) 0)
                           (= (+ (- |param1@pos'?7|) param1@pos?39) 0)
                           (= (+ (- |param0@pos'?6|) param0@pos?42) 0)
                           (= (+ (- |param2'?5|) param2?37) 0)
                           (= (+ (- |param1'?4|) param1?38) 0)
                           (= (+ (- |param0'?3|) param0?41) 0)
                           (= (- |k'?13|) 0))
                      (and (<= (+ (- K?16) 1) 0) (<= (- cxm?30) 0)
                             (<= (+ (mod (+ uninterp?1 j?33) 20) -19) 0)
                             (<= (- (mod (+ uninterp?1 j?33) 20)) 0)
                             (<= (- uninterp?1) 0) (<= (- i?34) 0)
                             (<= (- j?33) 0)
                             (= (+ stderr?27 (- |param0'?3|)) 0)
                             (= (+ stderr@pos?28 (- |param0@pos'?6|)) 0)
                             (= (+ stderr@width?29 (- |param0@width'?9|)) 0)
                             (<= (+ (- cxm?30) |k'?13| -1) 0)
                             (<= (+ (mod (+ uninterp?1 j?33) 20) -19) 0)
                             (<= (- (mod (+ uninterp?1 j?33) 20)) 0)
                             (<= (- uninterp?1) 0) (<= (- i?34) 0)
                             (<= (- j?33) 0) (<= (+ (- |k'?13|) 1) 0)))
                (= (+ |k'?13| (- K?16)) 0) (<= (- K?16) 0) (<= (- |k'?13|) 0)
                (<= (- j?33) 0) (<= (- i?34) 0) (< (+ cxm?30 (- |k'?13|)) 0)
                (= (+ |param2@width'?17| (- |param2@width'?11|)) 0)
                (= (+ |param1@width'?18| (- |param1@width'?10|)) 0)
                (= (+ |param0@width'?19| (- |param0@width'?9|)) 0)
                (= (+ |param2@pos'?20| (- |param2@pos'?8|)) 0)
                (= (+ |param1@pos'?21| (- |param1@pos'?7|)) 0)
                (= (+ |param0@pos'?22| (- |param0@pos'?6|)) 0)
                (= (+ |param2'?23| (- |param2'?5|)) 0)
                (= (+ |param1'?24| (- |param1'?4|)) 0)
                (= (+ |param0'?25| (- |param0'?3|)) 0)
                (= (+ |k'?26| (- |k'?13|)) 0) (= (+ |j'?2| (- j?33) -1) 0)
                (= delta_j (+ |j'?2| (- j?33)))
                (= delta_k (+ |k'?26| (- k?31)))
                (= delta_param0 (+ |param0'?25| (- param0?41)))
                (= delta_param1 (+ |param1'?24| (- param1?38)))
                (= delta_param2 (+ |param2'?23| (- param2?37)))
                (= delta_param0@pos (+ |param0@pos'?22| (- param0@pos?42)))
                (= delta_param1@pos (+ |param1@pos'?21| (- param1@pos?39)))
                (= delta_param2@pos (+ |param2@pos'?20| (- param2@pos?36)))
                (= delta_param0@width (+ |param0@width'?19|
                                           (- param0@width?43)))
                (= delta_param1@width (+ |param1@width'?18|
                                           (- param1@width?40)))
                (= delta_param2@width (+ |param2@width'?17|
                                           (- param2@width?35))))))
(check-sat)
